p cnf 101 13
-20 33 3 59 -4 0
-55 3 8 -24 -74 0
90 39 26 -75 -73 0
-92 -20 99 -101 -3 0
38 3 -1 -99 56 0
-37 -7 65 -62 4 0
-24 -37 43 -4 -63 0
-11 36 2 -22 -79 0
2 96 88 59 -34 0
-52 -99 18 -4 22 0
69 -18 -3 1 -2 0
-84 45 -20 13 -5 0
23 9 21 24 -96 0
